benchmarks_vrp/CMT5/tsp_classic/CMT5_2.vrp
NAME: CMT5_2
TYPE: CVRP
COMMENT: 1291.29 - Cluster Nr.2
DIMENSION: 17
CAPACITY: 200
EDGE_WEIGHT_TYPE: EUC_2D
NODE_COORD_TYPE: TWOD_COORDS
NODE_COORD_SECTION: 
15 35 17
17 30 15
8 35 16
6 30 5
2 22 22
14 28 18
7 36 16
11 26 13
12 32 22
1 27 23
3 22 22
10 32 12
16 35 35
5 21 10
4 24 12
9 25 21
13 23 3
DEPOT_SECTION: 
16
-1
DEMAND_SECTION: 
10 7
4 5
5 13
17 16
15 7
3 18
12 9
1 3
13 7
9 12
16 0
8 29
6 8
11 12
14 26
7 10
2 2
EOF
