benchmarks_vrp/CMT5/tsp_classic/CMT5_2.tour
NAME: CMT5_2 solution
TYPE: TOUR
TOUR_SECTION:
16 1 3 2 9 14 17 11 4 5 13 6 10 8 7 15 12 -1
-1
EOF